10
2147483647 18 64 96 27 65 44 38 27 39 
18 2147483647 49 74 65 55 15 42 78 37 
64 49 2147483647 65 21 61 68 54 63 65 
96 74 65 2147483647 10 56 89 34 99 28 
27 65 21 10 2147483647 97 93 63 58 2 
65 55 61 56 97 2147483647 38 54 55 18 
44 15 68 89 93 38 2147483647 44 59 45 
38 42 54 34 63 54 44 2147483647 16 53 
27 78 63 99 58 55 59 16 2147483647 68 
39 37 65 28 2 18 45 53 68 2147483647 
